p tw 813 923
1 69
1 718
2 70
2 719
3 71
3 720
4 72
4 721
5 49
5 722
6 50
6 723
7 73
7 724
8 55
8 725
9 56
9 726
10 74
10 727
11 75
11 728
12 76
12 729
13 65
13 730
14 66
14 731
15 77
15 732
16 78
16 733
17 57
17 734
18 58
18 735
19 79
19 736
20 80
20 737
21 81
21 738
22 82
22 739
23 51
23 740
24 52
24 741
25 83
25 742
26 84
26 743
27 59
27 744
28 60
28 745
29 53
29 746
30 54
30 747
31 85
31 748
32 86
32 749
33 63
33 750
34 64
34 751
35 87
35 752
36 88
36 753
37 89
37 754
38 61
38 755
39 62
39 756
40 90
40 757
41 91
41 758
42 92
42 759
43 93
43 760
44 94
44 761
45 67
45 762
46 68
46 763
47 95
47 764
48 96
48 765
49 50
49 97
50 117
51 52
51 121
52 100
53 54
53 123
54 124
55 56
55 110
56 118
57 58
57 120
58 101
59 60
59 122
60 106
61 62
61 116
62 126
63 64
63 111
64 125
65 66
65 119
66 113
67 68
67 127
68 128
69 137
70 138
71 109
72 220
73 179
74 98
75 167
76 284
77 142
78 99
79 134
80 105
81 183
82 114
83 130
84 102
85 115
86 224
87 103
88 216
89 250
90 112
91 173
92 104
93 213
94 107
95 108
96 144
97 98
97 148
98 136
99 100
99 152
100 129
101 102
101 133
102 157
103 104
103 140
104 163
105 106
105 154
106 159
107 108
107 164
108 143
109 110
109 147
110 150
111 112
111 161
112 146
113 114
113 141
114 155
115 116
115 132
116 162
117 149
118 135
119 151
120 153
121 156
122 158
123 160
124 131
125 139
126 145
127 165
128 166
129 130
129 195
130 171
131 132
131 198
132 170
133 134
133 168
134 192
135 136
135 177
136 190
137 138
137 187
138 181
139 140
139 199
140 176
141 142
141 180
142 191
143 144
143 203
144 204
145 146
145 185
146 201
147 188
148 182
149 243
150 189
151 259
152 178
153 251
154 193
155 194
156 169
157 196
158 175
159 197
160 184
161 172
162 200
163 202
164 186
165 261
166 174
167 168
167 206
168 231
169 170
169 232
170 223
171 172
171 209
172 237
173 174
173 218
174 240
175 176
175 234
176 215
177 178
177 229
178 208
179 180
179 228
180 230
181 182
181 226
182 227
183 184
183 221
184 235
185 186
185 239
186 214
187 225
188 219
189 296
190 205
191 207
192 211
193 212
194 222
195 233
196 210
197 330
198 236
199 238
200 302
201 217
202 292
203 241
204 242
205 206
205 267
206 244
207 208
207 245
208 269
209 210
209 252
210 273
211 212
211 253
212 271
213 214
213 280
214 281
215 216
215 277
216 278
217 218
217 279
218 256
219 220
219 264
220 247
221 222
221 260
222 272
223 224
223 275
224 257
225 336
226 263
227 265
228 266
229 248
230 268
231 270
232 246
233 324
234 254
235 274
236 249
237 276
238 255
239 258
240 282
241 410
242 262
243 244
243 304
244 283
245 246
245 308
246 300
247 248
247 285
248 305
249 250
249 313
250 301
251 252
251 288
252 312
253 254
253 309
254 290
255 256
255 315
256 291
257 258
257 297
258 318
259 260
259 307
260 311
261 262
261 294
262 321
263 448
264 303
265 286
266 295
267 306
268 377
269 287
270 369
271 310
272 299
273 289
274 364
275 314
276 298
277 316
278 317
279 319
280 320
281 293
282 379
283 284
283 346
284 338
285 286
285 337
286 342
287 288
287 348
288 323
289 290
289 326
290 352
291 292
291 356
292 357
293 294
293 358
294 333
295 296
295 344
296 328
297 298
297 325
298 353
299 300
299 340
300 350
301 302
301 354
302 334
303 411
304 343
305 345
306 322
307 347
308 329
309 339
310 407
311 349
312 351
313 341
314 417
315 327
316 405
317 331
318 355
319 332
320 335
321 359
322 323
322 383
323 368
324 325
324 363
325 391
326 327
326 390
327 375
328 329
328 366
329 386
330 331
330 371
331 392
332 333
332 394
333 378
334 335
334 372
335 397
336 337
336 380
337 381
338 339
338 385
339 388
340 341
340 389
341 365
342 360
343 361
344 382
345 367
346 384
347 376
348 387
349 493
350 362
351 440
352 370
353 374
354 393
355 373
356 395
357 396
358 398
359 454
360 361
360 399
361 421
362 363
362 428
363 402
364 365
364 430
365 431
366 367
366 412
367 422
368 369
368 426
369 403
370 371
370 429
371 408
372 373
372 418
373 435
374 375
374 413
375 433
376 377
376 424
377 415
378 379
378 437
379 438
380 419
381 420
382 489
383 400
384 477
385 423
386 425
387 401
388 427
389 416
390 404
391 432
392 434
393 560
394 414
395 483
396 406
397 436
398 409
399 400
399 458
400 446
401 402
401 462
402 439
403 404
403 443
404 467
405 406
405 450
406 473
407 408
407 464
408 469
409 410
409 474
410 453
411 412
411 457
412 460
413 414
413 471
414 456
415 416
415 451
416 465
417 418
417 442
418 472
419 447
420 530
421 459
422 445
423 594
424 461
425 452
426 463
427 444
428 466
429 468
430 470
431 441
432 534
433 449
434 526
435 455
436 523
437 475
438 476
439 440
439 505
440 481
441 442
441 508
442 480
443 444
443 478
444 502
445 446
445 487
446 500
447 448
447 497
448 491
449 450
449 509
450 486
451 452
451 490
452 501
453 454
453 513
454 514
455 456
455 495
456 511
457 498
458 492
459 553
460 499
461 569
462 488
463 561
464 503
465 504
466 479
467 506
468 485
469 507
470 494
471 482
472 510
473 512
474 496
475 571
476 484
477 478
477 516
478 541
479 480
479 542
480 533
481 482
481 519
482 547
483 484
483 528
484 550
485 486
485 544
486 525
487 488
487 539
488 518
489 490
489 538
490 540
491 492
491 536
492 537
493 494
493 531
494 545
495 496
495 549
496 524
497 535
498 529
499 606
500 515
501 517
502 521
503 522
504 532
505 543
506 520
507 640
508 546
509 548
510 612
511 527
512 602
513 551
514 552
515 516
515 577
516 554
517 518
517 555
518 579
519 520
519 562
520 583
521 522
521 563
522 581
523 524
523 590
524 591
525 526
525 587
526 588
527 528
527 589
528 566
529 530
529 574
530 557
531 532
531 570
532 582
533 534
533 585
534 567
535 646
536 573
537 575
538 576
539 558
540 578
541 580
542 556
543 634
544 564
545 584
546 559
547 586
548 565
549 568
550 592
551 716
552 572
553 554
553 614
554 593
555 556
555 618
556 610
557 558
557 595
558 615
559 560
559 623
560 611
561 562
561 598
562 622
563 564
563 619
564 600
565 566
565 625
566 601
567 568
567 607
568 628
569 570
569 617
570 621
571 572
571 604
572 631
573 671
574 613
575 596
576 605
577 616
578 683
579 597
580 687
581 620
582 609
583 599
584 698
585 624
586 608
587 626
588 627
589 629
590 630
591 603
592 715
593 594
593 656
594 648
595 596
595 647
596 652
597 598
597 658
598 633
599 600
599 636
600 662
601 602
601 666
602 667
603 604
603 668
604 643
605 606
605 654
606 638
607 608
607 635
608 663
609 610
609 650
610 660
611 612
611 664
612 644
613 672
614 653
615 655
616 632
617 657
618 639
619 649
620 689
621 659
622 661
623 651
624 700
625 637
626 704
627 641
628 665
629 642
630 645
631 669
632 633
632 679
633 686
634 635
634 693
635 701
636 637
636 695
637 703
638 639
638 677
639 684
640 641
640 697
641 705
642 643
642 709
643 714
644 645
644 707
645 712
646 647
646 670
647 673
648 649
648 681
649 688
650 651
650 691
651 699
652 674
653 675
654 676
655 678
656 680
657 682
658 685
659 690
660 692
661 694
662 696
663 702
664 706
665 708
666 710
667 711
668 713
669 717
670 766
671 767
672 768
673 769
674 770
675 771
676 772
677 773
678 774
679 775
680 776
681 777
682 778
683 779
684 780
685 781
686 782
687 783
688 784
689 785
690 786
691 787
692 788
693 789
694 790
695 791
696 792
697 793
698 794
699 795
700 796
701 797
702 798
703 799
704 800
705 801
706 802
707 803
708 804
709 805
710 806
711 807
712 808
713 809
714 810
715 811
716 812
717 813
